data/lp_files/q3/60_4.lp
\ Model foo
\ LP format - for model browsing. Use MPS format to capture full model detail.
Minimize
  z
Subject To
 allocateEach[1]: x[1,1] + x[2,1] + x[3,1] = 1
 allocateEach[2]: x[1,2] + x[2,2] + x[3,2] = 1
 allocateEach[3]: x[1,3] + x[2,3] + x[3,3] = 1
 allocateEach[4]: x[1,4] + x[2,4] + x[3,4] = 1
 allocateEach[5]: x[1,5] + x[2,5] + x[3,5] = 1
 allocateEach[6]: x[1,6] + x[2,6] + x[3,6] = 1
 allocateEach[7]: x[1,7] + x[2,7] + x[3,7] = 1
 allocateEach[8]: x[1,8] + x[2,8] + x[3,8] = 1
 allocateEach[9]: x[1,9] + x[2,9] + x[3,9] = 1
 allocateEach[10]: x[1,10] + x[2,10] + x[3,10] = 1
 allocateEach[11]: x[1,11] + x[2,11] + x[3,11] = 1
 allocateEach[12]: x[1,12] + x[2,12] + x[3,12] = 1
 allocateEach[13]: x[1,13] + x[2,13] + x[3,13] = 1
 allocateEach[14]: x[1,14] + x[2,14] + x[3,14] = 1
 allocateEach[15]: x[1,15] + x[2,15] + x[3,15] = 1
 allocateEach[16]: x[1,16] + x[2,16] + x[3,16] = 1
 allocateEach[17]: x[1,17] + x[2,17] + x[3,17] = 1
 allocateEach[18]: x[1,18] + x[2,18] + x[3,18] = 1
 allocateEach[19]: x[1,19] + x[2,19] + x[3,19] = 1
 allocateEach[20]: x[1,20] + x[2,20] + x[3,20] = 1
 allocateAllCash: cashProportion[1] + cashProportion[2] + cashProportion[3]
   = 1
 findWorstP[1,2]: z + 0.0255229655644149 cashProportion[1]
   - 0.0255229655644149 cashProportion[2] + 0.0321283090524854 x[1,1]
   + 0.0100560484323795 x[1,2] + 0.0200916784923074 x[1,3]
   + 0.0852671233575972 x[1,4] + 0.0993966370940572 x[1,5]
   + 0.0858898837173689 x[1,6] + 0.0541597329276883 x[1,7]
   + 0.0813774234055803 x[1,8] + 0.00429806740104746 x[1,9]
   + 0.0503925432103807 x[1,10] + 0.0707598697307838 x[1,11]
   + 0.0398872905840675 x[1,12] + 0.00392032751069412 x[1,13]
   + 6.3296954599748848e-04 x[1,14] + 0.00948433400373656 x[1,15]
   + 0.0969668507723249 x[1,16] + 0.0171514328592868 x[1,17]
   + 0.0740268093230289 x[1,18] + 0.0510663495012812 x[1,19]
   + 0.0875233535134914 x[1,20] - 0.0321283090524854 x[2,1]
   - 0.0100560484323795 x[2,2] - 0.0200916784923074 x[2,3]
   - 0.0852671233575972 x[2,4] - 0.0993966370940572 x[2,5]
   - 0.0858898837173689 x[2,6] - 0.0541597329276883 x[2,7]
   - 0.0813774234055803 x[2,8] - 0.00429806740104746 x[2,9]
   - 0.0503925432103807 x[2,10] - 0.0707598697307838 x[2,11]
   - 0.0398872905840675 x[2,12] - 0.00392032751069412 x[2,13]
   - 6.3296954599748848e-04 x[2,14] - 0.00948433400373656 x[2,15]
   - 0.0969668507723249 x[2,16] - 0.0171514328592868 x[2,17]
   - 0.0740268093230289 x[2,18] - 0.0510663495012812 x[2,19]
   - 0.0875233535134914 x[2,20] >= 0
 findWorstP[1,3]: z + 0.0255229655644149 cashProportion[1]
   - 0.0255229655644149 cashProportion[3] + 0.0321283090524854 x[1,1]
   + 0.0100560484323795 x[1,2] + 0.0200916784923074 x[1,3]
   + 0.0852671233575972 x[1,4] + 0.0993966370940572 x[1,5]
   + 0.0858898837173689 x[1,6] + 0.0541597329276883 x[1,7]
   + 0.0813774234055803 x[1,8] + 0.00429806740104746 x[1,9]
   + 0.0503925432103807 x[1,10] + 0.0707598697307838 x[1,11]
   + 0.0398872905840675 x[1,12] + 0.00392032751069412 x[1,13]
   + 6.3296954599748848e-04 x[1,14] + 0.00948433400373656 x[1,15]
   + 0.0969668507723249 x[1,16] + 0.0171514328592868 x[1,17]
   + 0.0740268093230289 x[1,18] + 0.0510663495012812 x[1,19]
   + 0.0875233535134914 x[1,20] - 0.0321283090524854 x[3,1]
   - 0.0100560484323795 x[3,2] - 0.0200916784923074 x[3,3]
   - 0.0852671233575972 x[3,4] - 0.0993966370940572 x[3,5]
   - 0.0858898837173689 x[3,6] - 0.0541597329276883 x[3,7]
   - 0.0813774234055803 x[3,8] - 0.00429806740104746 x[3,9]
   - 0.0503925432103807 x[3,10] - 0.0707598697307838 x[3,11]
   - 0.0398872905840675 x[3,12] - 0.00392032751069412 x[3,13]
   - 6.3296954599748848e-04 x[3,14] - 0.00948433400373656 x[3,15]
   - 0.0969668507723249 x[3,16] - 0.0171514328592868 x[3,17]
   - 0.0740268093230289 x[3,18] - 0.0510663495012812 x[3,19]
   - 0.0875233535134914 x[3,20] >= 0
 findWorstP[2,1]: z - 0.0274306279419348 cashProportion[1]
   + 0.0274306279419348 cashProportion[2] - 0.047762209372497 x[1,1]
   - 8.7778e-05 x[1,2] - 0.0906637114736831 x[1,3]
   - 0.00680279572959984 x[1,4] - 0.0551794511679961 x[1,5]
   - 0.0876902314047773 x[1,6] - 0.00260042352889542 x[1,7]
   - 8.9972459649546302e-04 x[1,8] - 0.081249519964011 x[1,9]
   - 0.1093165384741987 x[1,10] - 0.00347820362303734 x[1,11]
   - 0.0967862276303229 x[1,12] - 0.0701675462754693 x[1,13]
   - 0.0028198685524309 x[1,14] - 0.0828404963846432 x[1,15]
   - 0.0519206925684943 x[1,16] - 0.0725375525296525 x[1,17]
   - 0.0381395450904662 x[1,18] - 0.0185540767399247 x[1,19]
   - 0.0530727789420555 x[1,20] + 0.047762209372497 x[2,1]
   + 8.7778e-05 x[2,2] + 0.0906637114736831 x[2,3]
   + 0.00680279572959984 x[2,4] + 0.0551794511679961 x[2,5]
   + 0.0876902314047773 x[2,6] + 0.00260042352889542 x[2,7]
   + 8.9972459649546302e-04 x[2,8] + 0.081249519964011 x[2,9]
   + 0.1093165384741987 x[2,10] + 0.00347820362303734 x[2,11]
   + 0.0967862276303229 x[2,12] + 0.0701675462754693 x[2,13]
   + 0.0028198685524309 x[2,14] + 0.0828404963846432 x[2,15]
   + 0.0519206925684943 x[2,16] + 0.0725375525296525 x[2,17]
   + 0.0381395450904662 x[2,18] + 0.0185540767399247 x[2,19]
   + 0.0530727789420555 x[2,20] >= 0
 findWorstP[2,3]: z + 0.0274306279419348 cashProportion[2]
   - 0.0274306279419348 cashProportion[3] + 0.047762209372497 x[2,1]
   + 8.7778e-05 x[2,2] + 0.0906637114736831 x[2,3]
   + 0.00680279572959984 x[2,4] + 0.0551794511679961 x[2,5]
   + 0.0876902314047773 x[2,6] + 0.00260042352889542 x[2,7]
   + 8.9972459649546302e-04 x[2,8] + 0.081249519964011 x[2,9]
   + 0.1093165384741987 x[2,10] + 0.00347820362303734 x[2,11]
   + 0.0967862276303229 x[2,12] + 0.0701675462754693 x[2,13]
   + 0.0028198685524309 x[2,14] + 0.0828404963846432 x[2,15]
   + 0.0519206925684943 x[2,16] + 0.0725375525296525 x[2,17]
   + 0.0381395450904662 x[2,18] + 0.0185540767399247 x[2,19]
   + 0.0530727789420555 x[2,20] - 0.047762209372497 x[3,1]
   - 8.7778e-05 x[3,2] - 0.0906637114736831 x[3,3]
   - 0.00680279572959984 x[3,4] - 0.0551794511679961 x[3,5]
   - 0.0876902314047773 x[3,6] - 0.00260042352889542 x[3,7]
   - 8.9972459649546302e-04 x[3,8] - 0.081249519964011 x[3,9]
   - 0.1093165384741987 x[3,10] - 0.00347820362303734 x[3,11]
   - 0.0967862276303229 x[3,12] - 0.0701675462754693 x[3,13]
   - 0.0028198685524309 x[3,14] - 0.0828404963846432 x[3,15]
   - 0.0519206925684943 x[3,16] - 0.0725375525296525 x[3,17]
   - 0.0381395450904662 x[3,18] - 0.0185540767399247 x[3,19]
   - 0.0530727789420555 x[3,20] >= 0
 findWorstP[3,1]: z - 0.0206591081876178 cashProportion[1]
   + 0.0206591081876178 cashProportion[3] - 0.0655554821009487 x[1,1]
   - 0.0214772088718474 x[1,2] - 0.039640696790401 x[1,3]
   - 0.0551928734340396 x[1,4] - 0.0788682114170496 x[1,5]
   - 0.0200228076554391 x[1,6] - 0.0360542756090305 x[1,7]
   - 0.0202459260238654 x[1,8] - 0.0746454897035005 x[1,9]
   - 0.0474746306151456 x[1,10] - 0.0468631210127921 x[1,11]
   - 0.019469143556011 x[1,12] - 0.0469044392291674 x[1,13]
   - 0.0616798334049516 x[1,14] - 0.0774055465573662 x[1,15]
   - 0.0748024989257264 x[1,16] - 0.0586636036095594 x[1,17]
   - 0.0352031203517007 x[1,18] - 0.0612418603113741 x[1,19]
   - 0.0379301226324662 x[1,20] + 0.0655554821009487 x[3,1]
   + 0.0214772088718474 x[3,2] + 0.039640696790401 x[3,3]
   + 0.0551928734340396 x[3,4] + 0.0788682114170496 x[3,5]
   + 0.0200228076554391 x[3,6] + 0.0360542756090305 x[3,7]
   + 0.0202459260238654 x[3,8] + 0.0746454897035005 x[3,9]
   + 0.0474746306151456 x[3,10] + 0.0468631210127921 x[3,11]
   + 0.019469143556011 x[3,12] + 0.0469044392291674 x[3,13]
   + 0.0616798334049516 x[3,14] + 0.0774055465573662 x[3,15]
   + 0.0748024989257264 x[3,16] + 0.0586636036095594 x[3,17]
   + 0.0352031203517007 x[3,18] + 0.0612418603113741 x[3,19]
   + 0.0379301226324662 x[3,20] >= 0
 findWorstP[3,2]: z - 0.0206591081876178 cashProportion[2]
   + 0.0206591081876178 cashProportion[3] - 0.0655554821009487 x[2,1]
   - 0.0214772088718474 x[2,2] - 0.039640696790401 x[2,3]
   - 0.0551928734340396 x[2,4] - 0.0788682114170496 x[2,5]
   - 0.0200228076554391 x[2,6] - 0.0360542756090305 x[2,7]
   - 0.0202459260238654 x[2,8] - 0.0746454897035005 x[2,9]
   - 0.0474746306151456 x[2,10] - 0.0468631210127921 x[2,11]
   - 0.019469143556011 x[2,12] - 0.0469044392291674 x[2,13]
   - 0.0616798334049516 x[2,14] - 0.0774055465573662 x[2,15]
   - 0.0748024989257264 x[2,16] - 0.0586636036095594 x[2,17]
   - 0.0352031203517007 x[2,18] - 0.0612418603113741 x[2,19]
   - 0.0379301226324662 x[2,20] + 0.0655554821009487 x[3,1]
   + 0.0214772088718474 x[3,2] + 0.039640696790401 x[3,3]
   + 0.0551928734340396 x[3,4] + 0.0788682114170496 x[3,5]
   + 0.0200228076554391 x[3,6] + 0.0360542756090305 x[3,7]
   + 0.0202459260238654 x[3,8] + 0.0746454897035005 x[3,9]
   + 0.0474746306151456 x[3,10] + 0.0468631210127921 x[3,11]
   + 0.019469143556011 x[3,12] + 0.0469044392291674 x[3,13]
   + 0.0616798334049516 x[3,14] + 0.0774055465573662 x[3,15]
   + 0.0748024989257264 x[3,16] + 0.0586636036095594 x[3,17]
   + 0.0352031203517007 x[3,18] + 0.0612418603113741 x[3,19]
   + 0.0379301226324662 x[3,20] >= 0
Bounds
 z <= 1
 -infinity <= cashProportion[1] <= 1
 -infinity <= cashProportion[2] <= 1
 -infinity <= cashProportion[3] <= 1
Binaries
 x[1,1] x[1,2] x[1,3] x[1,4] x[1,5] x[1,6] x[1,7] x[1,8] x[1,9] x[1,10]
 x[1,11] x[1,12] x[1,13] x[1,14] x[1,15] x[1,16] x[1,17] x[1,18] x[1,19]
 x[1,20] x[2,1] x[2,2] x[2,3] x[2,4] x[2,5] x[2,6] x[2,7] x[2,8] x[2,9]
 x[2,10] x[2,11] x[2,12] x[2,13] x[2,14] x[2,15] x[2,16] x[2,17] x[2,18]
 x[2,19] x[2,20] x[3,1] x[3,2] x[3,3] x[3,4] x[3,5] x[3,6] x[3,7] x[3,8]
 x[3,9] x[3,10] x[3,11] x[3,12] x[3,13] x[3,14] x[3,15] x[3,16] x[3,17]
 x[3,18] x[3,19] x[3,20]
End
