data/mps_files/q3/60_4.mps
NAME foo
ROWS
 N  OBJ
 E  allocateEach[1]
 E  allocateEach[2]
 E  allocateEach[3]
 E  allocateEach[4]
 E  allocateEach[5]
 E  allocateEach[6]
 E  allocateEach[7]
 E  allocateEach[8]
 E  allocateEach[9]
 E  allocateEach[10]
 E  allocateEach[11]
 E  allocateEach[12]
 E  allocateEach[13]
 E  allocateEach[14]
 E  allocateEach[15]
 E  allocateEach[16]
 E  allocateEach[17]
 E  allocateEach[18]
 E  allocateEach[19]
 E  allocateEach[20]
 E  allocateAllCash
 G  findWorstP[1,2]
 G  findWorstP[1,3]
 G  findWorstP[2,1]
 G  findWorstP[2,3]
 G  findWorstP[3,1]
 G  findWorstP[3,2]
COLUMNS
    z         OBJ       1
    z         findWorstP[1,2]  1
    z         findWorstP[1,3]  1
    z         findWorstP[2,1]  1
    z         findWorstP[2,3]  1
    z         findWorstP[3,1]  1
    z         findWorstP[3,2]  1
    cashProportion[1]  allocateAllCash  1
    cashProportion[1]  findWorstP[1,2]  2.5522965564414860e-02
    cashProportion[1]  findWorstP[1,3]  2.5522965564414860e-02
    cashProportion[1]  findWorstP[2,1]  -2.7430627941934845e-02
    cashProportion[1]  findWorstP[3,1]  -2.0659108187617761e-02
    cashProportion[2]  allocateAllCash  1
    cashProportion[2]  findWorstP[1,2]  -2.5522965564414860e-02
    cashProportion[2]  findWorstP[2,1]  2.7430627941934845e-02
    cashProportion[2]  findWorstP[2,3]  2.7430627941934845e-02
    cashProportion[2]  findWorstP[3,2]  -2.0659108187617761e-02
    cashProportion[3]  allocateAllCash  1
    cashProportion[3]  findWorstP[1,3]  -2.5522965564414860e-02
    cashProportion[3]  findWorstP[2,3]  -2.7430627941934845e-02
    cashProportion[3]  findWorstP[3,1]  2.0659108187617761e-02
    cashProportion[3]  findWorstP[3,2]  2.0659108187617761e-02
    MARKER    'MARKER'                 'INTORG'
    x[1,1]    allocateEach[1]  1
    x[1,1]    findWorstP[1,2]  3.2128309052485426e-02
    x[1,1]    findWorstP[1,3]  3.2128309052485426e-02
    x[1,1]    findWorstP[2,1]  -4.7762209372496957e-02
    x[1,1]    findWorstP[3,1]  -6.5555482100948678e-02
    x[1,2]    allocateEach[2]  1
    x[1,2]    findWorstP[1,2]  1.0056048432379455e-02
    x[1,2]    findWorstP[1,3]  1.0056048432379455e-02
    x[1,2]    findWorstP[2,1]  -8.7778009414191512e-05
    x[1,2]    findWorstP[3,1]  -2.1477208871847425e-02
    x[1,3]    allocateEach[3]  1
    x[1,3]    findWorstP[1,2]  2.0091678492307377e-02
    x[1,3]    findWorstP[1,3]  2.0091678492307377e-02
    x[1,3]    findWorstP[2,1]  -9.0663711473683059e-02
    x[1,3]    findWorstP[3,1]  -3.9640696790400963e-02
    x[1,4]    allocateEach[4]  1
    x[1,4]    findWorstP[1,2]  8.5267123357597174e-02
    x[1,4]    findWorstP[1,3]  8.5267123357597174e-02
    x[1,4]    findWorstP[2,1]  -6.8027957295998418e-03
    x[1,4]    findWorstP[3,1]  -5.5192873434039613e-02
    x[1,5]    allocateEach[5]  1
    x[1,5]    findWorstP[1,2]  9.9396637094057230e-02
    x[1,5]    findWorstP[1,3]  9.9396637094057230e-02
    x[1,5]    findWorstP[2,1]  -5.5179451167996135e-02
    x[1,5]    findWorstP[3,1]  -7.8868211417049569e-02
    x[1,6]    allocateEach[6]  1
    x[1,6]    findWorstP[1,2]  8.5889883717368887e-02
    x[1,6]    findWorstP[1,3]  8.5889883717368887e-02
    x[1,6]    findWorstP[2,1]  -8.7690231404777316e-02
    x[1,6]    findWorstP[3,1]  -2.0022807655439134e-02
    x[1,7]    allocateEach[7]  1
    x[1,7]    findWorstP[1,2]  5.4159732927688331e-02
    x[1,7]    findWorstP[1,3]  5.4159732927688331e-02
    x[1,7]    findWorstP[2,1]  -2.6004235288954233e-03
    x[1,7]    findWorstP[3,1]  -3.6054275609030517e-02
    x[1,8]    allocateEach[8]  1
    x[1,8]    findWorstP[1,2]  8.1377423405580337e-02
    x[1,8]    findWorstP[1,3]  8.1377423405580337e-02
    x[1,8]    findWorstP[2,1]  -0.000899724596495463
    x[1,8]    findWorstP[3,1]  -2.0245926023865404e-02
    x[1,9]    allocateEach[9]  1
    x[1,9]    findWorstP[1,2]  4.2980674010474626e-03
    x[1,9]    findWorstP[1,3]  4.2980674010474626e-03
    x[1,9]    findWorstP[2,1]  -8.1249519964011016e-02
    x[1,9]    findWorstP[3,1]  -7.4645489703500489e-02
    x[1,10]   allocateEach[10]  1
    x[1,10]   findWorstP[1,2]  0.0503925432103807
    x[1,10]   findWorstP[1,3]  0.0503925432103807
    x[1,10]   findWorstP[2,1]  -1.0931653847419874e-01
    x[1,10]   findWorstP[3,1]  -4.7474630615145612e-02
    x[1,11]   allocateEach[11]  1
    x[1,11]   findWorstP[1,2]  7.0759869730783770e-02
    x[1,11]   findWorstP[1,3]  7.0759869730783770e-02
    x[1,11]   findWorstP[2,1]  -3.4782036230373383e-03
    x[1,11]   findWorstP[3,1]  -4.6863121012792129e-02
    x[1,12]   allocateEach[12]  1
    x[1,12]   findWorstP[1,2]  3.9887290584067543e-02
    x[1,12]   findWorstP[1,3]  3.9887290584067543e-02
    x[1,12]   findWorstP[2,1]  -9.6786227630322907e-02
    x[1,12]   findWorstP[3,1]  -1.9469143556010978e-02
    x[1,13]   allocateEach[13]  1
    x[1,13]   findWorstP[1,2]  3.9203275106941219e-03
    x[1,13]   findWorstP[1,3]  3.9203275106941219e-03
    x[1,13]   findWorstP[2,1]  -7.0167546275469325e-02
    x[1,13]   findWorstP[3,1]  -4.6904439229167365e-02
    x[1,14]   allocateEach[14]  1
    x[1,14]   findWorstP[1,2]  6.3296954599748848e-04
    x[1,14]   findWorstP[1,3]  6.3296954599748848e-04
    x[1,14]   findWorstP[2,1]  -2.8198685524309024e-03
    x[1,14]   findWorstP[3,1]  -6.1679833404951583e-02
    x[1,15]   allocateEach[15]  1
    x[1,15]   findWorstP[1,2]  9.4843340037365619e-03
    x[1,15]   findWorstP[1,3]  9.4843340037365619e-03
    x[1,15]   findWorstP[2,1]  -8.2840496384643234e-02
    x[1,15]   findWorstP[3,1]  -7.7405546557366228e-02
    x[1,16]   allocateEach[16]  1
    x[1,16]   findWorstP[1,2]  9.6966850772324933e-02
    x[1,16]   findWorstP[1,3]  9.6966850772324933e-02
    x[1,16]   findWorstP[2,1]  -5.1920692568494277e-02
    x[1,16]   findWorstP[3,1]  -0.0748024989257264
    x[1,17]   allocateEach[17]  1
    x[1,17]   findWorstP[1,2]  1.7151432859286789e-02
    x[1,17]   findWorstP[1,3]  1.7151432859286789e-02
    x[1,17]   findWorstP[2,1]  -7.2537552529652508e-02
    x[1,17]   findWorstP[3,1]  -5.8663603609559391e-02
    x[1,18]   allocateEach[18]  1
    x[1,18]   findWorstP[1,2]  7.4026809323028853e-02
    x[1,18]   findWorstP[1,3]  7.4026809323028853e-02
    x[1,18]   findWorstP[2,1]  -3.8139545090466208e-02
    x[1,18]   findWorstP[3,1]  -3.5203120351700666e-02
    x[1,19]   allocateEach[19]  1
    x[1,19]   findWorstP[1,2]  5.1066349501281250e-02
    x[1,19]   findWorstP[1,3]  5.1066349501281250e-02
    x[1,19]   findWorstP[2,1]  -1.8554076739924728e-02
    x[1,19]   findWorstP[3,1]  -6.1241860311374088e-02
    x[1,20]   allocateEach[20]  1
    x[1,20]   findWorstP[1,2]  8.7523353513491428e-02
    x[1,20]   findWorstP[1,3]  8.7523353513491428e-02
    x[1,20]   findWorstP[2,1]  -5.3072778942055539e-02
    x[1,20]   findWorstP[3,1]  -3.7930122632466208e-02
    x[2,1]    allocateEach[1]  1
    x[2,1]    findWorstP[1,2]  -3.2128309052485426e-02
    x[2,1]    findWorstP[2,1]  4.7762209372496957e-02
    x[2,1]    findWorstP[2,3]  4.7762209372496957e-02
    x[2,1]    findWorstP[3,2]  -6.5555482100948678e-02
    x[2,2]    allocateEach[2]  1
    x[2,2]    findWorstP[1,2]  -1.0056048432379455e-02
    x[2,2]    findWorstP[2,1]  8.7778009414191512e-05
    x[2,2]    findWorstP[2,3]  8.7778009414191512e-05
    x[2,2]    findWorstP[3,2]  -2.1477208871847425e-02
    x[2,3]    allocateEach[3]  1
    x[2,3]    findWorstP[1,2]  -2.0091678492307377e-02
    x[2,3]    findWorstP[2,1]  9.0663711473683059e-02
    x[2,3]    findWorstP[2,3]  9.0663711473683059e-02
    x[2,3]    findWorstP[3,2]  -3.9640696790400963e-02
    x[2,4]    allocateEach[4]  1
    x[2,4]    findWorstP[1,2]  -8.5267123357597174e-02
    x[2,4]    findWorstP[2,1]  6.8027957295998418e-03
    x[2,4]    findWorstP[2,3]  6.8027957295998418e-03
    x[2,4]    findWorstP[3,2]  -5.5192873434039613e-02
    x[2,5]    allocateEach[5]  1
    x[2,5]    findWorstP[1,2]  -9.9396637094057230e-02
    x[2,5]    findWorstP[2,1]  5.5179451167996135e-02
    x[2,5]    findWorstP[2,3]  5.5179451167996135e-02
    x[2,5]    findWorstP[3,2]  -7.8868211417049569e-02
    x[2,6]    allocateEach[6]  1
    x[2,6]    findWorstP[1,2]  -8.5889883717368887e-02
    x[2,6]    findWorstP[2,1]  8.7690231404777316e-02
    x[2,6]    findWorstP[2,3]  8.7690231404777316e-02
    x[2,6]    findWorstP[3,2]  -2.0022807655439134e-02
    x[2,7]    allocateEach[7]  1
    x[2,7]    findWorstP[1,2]  -5.4159732927688331e-02
    x[2,7]    findWorstP[2,1]  2.6004235288954233e-03
    x[2,7]    findWorstP[2,3]  2.6004235288954233e-03
    x[2,7]    findWorstP[3,2]  -3.6054275609030517e-02
    x[2,8]    allocateEach[8]  1
    x[2,8]    findWorstP[1,2]  -8.1377423405580337e-02
    x[2,8]    findWorstP[2,1]  0.000899724596495463
    x[2,8]    findWorstP[2,3]  0.000899724596495463
    x[2,8]    findWorstP[3,2]  -2.0245926023865404e-02
    x[2,9]    allocateEach[9]  1
    x[2,9]    findWorstP[1,2]  -4.2980674010474626e-03
    x[2,9]    findWorstP[2,1]  8.1249519964011016e-02
    x[2,9]    findWorstP[2,3]  8.1249519964011016e-02
    x[2,9]    findWorstP[3,2]  -7.4645489703500489e-02
    x[2,10]   allocateEach[10]  1
    x[2,10]   findWorstP[1,2]  -0.0503925432103807
    x[2,10]   findWorstP[2,1]  1.0931653847419874e-01
    x[2,10]   findWorstP[2,3]  1.0931653847419874e-01
    x[2,10]   findWorstP[3,2]  -4.7474630615145612e-02
    x[2,11]   allocateEach[11]  1
    x[2,11]   findWorstP[1,2]  -7.0759869730783770e-02
    x[2,11]   findWorstP[2,1]  3.4782036230373383e-03
    x[2,11]   findWorstP[2,3]  3.4782036230373383e-03
    x[2,11]   findWorstP[3,2]  -4.6863121012792129e-02
    x[2,12]   allocateEach[12]  1
    x[2,12]   findWorstP[1,2]  -3.9887290584067543e-02
    x[2,12]   findWorstP[2,1]  9.6786227630322907e-02
    x[2,12]   findWorstP[2,3]  9.6786227630322907e-02
    x[2,12]   findWorstP[3,2]  -1.9469143556010978e-02
    x[2,13]   allocateEach[13]  1
    x[2,13]   findWorstP[1,2]  -3.9203275106941219e-03
    x[2,13]   findWorstP[2,1]  7.0167546275469325e-02
    x[2,13]   findWorstP[2,3]  7.0167546275469325e-02
    x[2,13]   findWorstP[3,2]  -4.6904439229167365e-02
    x[2,14]   allocateEach[14]  1
    x[2,14]   findWorstP[1,2]  -6.3296954599748848e-04
    x[2,14]   findWorstP[2,1]  2.8198685524309024e-03
    x[2,14]   findWorstP[2,3]  2.8198685524309024e-03
    x[2,14]   findWorstP[3,2]  -6.1679833404951583e-02
    x[2,15]   allocateEach[15]  1
    x[2,15]   findWorstP[1,2]  -9.4843340037365619e-03
    x[2,15]   findWorstP[2,1]  8.2840496384643234e-02
    x[2,15]   findWorstP[2,3]  8.2840496384643234e-02
    x[2,15]   findWorstP[3,2]  -7.7405546557366228e-02
    x[2,16]   allocateEach[16]  1
    x[2,16]   findWorstP[1,2]  -9.6966850772324933e-02
    x[2,16]   findWorstP[2,1]  5.1920692568494277e-02
    x[2,16]   findWorstP[2,3]  5.1920692568494277e-02
    x[2,16]   findWorstP[3,2]  -0.0748024989257264
    x[2,17]   allocateEach[17]  1
    x[2,17]   findWorstP[1,2]  -1.7151432859286789e-02
    x[2,17]   findWorstP[2,1]  7.2537552529652508e-02
    x[2,17]   findWorstP[2,3]  7.2537552529652508e-02
    x[2,17]   findWorstP[3,2]  -5.8663603609559391e-02
    x[2,18]   allocateEach[18]  1
    x[2,18]   findWorstP[1,2]  -7.4026809323028853e-02
    x[2,18]   findWorstP[2,1]  3.8139545090466208e-02
    x[2,18]   findWorstP[2,3]  3.8139545090466208e-02
    x[2,18]   findWorstP[3,2]  -3.5203120351700666e-02
    x[2,19]   allocateEach[19]  1
    x[2,19]   findWorstP[1,2]  -5.1066349501281250e-02
    x[2,19]   findWorstP[2,1]  1.8554076739924728e-02
    x[2,19]   findWorstP[2,3]  1.8554076739924728e-02
    x[2,19]   findWorstP[3,2]  -6.1241860311374088e-02
    x[2,20]   allocateEach[20]  1
    x[2,20]   findWorstP[1,2]  -8.7523353513491428e-02
    x[2,20]   findWorstP[2,1]  5.3072778942055539e-02
    x[2,20]   findWorstP[2,3]  5.3072778942055539e-02
    x[2,20]   findWorstP[3,2]  -3.7930122632466208e-02
    x[3,1]    allocateEach[1]  1
    x[3,1]    findWorstP[1,3]  -3.2128309052485426e-02
    x[3,1]    findWorstP[2,3]  -4.7762209372496957e-02
    x[3,1]    findWorstP[3,1]  6.5555482100948678e-02
    x[3,1]    findWorstP[3,2]  6.5555482100948678e-02
    x[3,2]    allocateEach[2]  1
    x[3,2]    findWorstP[1,3]  -1.0056048432379455e-02
    x[3,2]    findWorstP[2,3]  -8.7778009414191512e-05
    x[3,2]    findWorstP[3,1]  2.1477208871847425e-02
    x[3,2]    findWorstP[3,2]  2.1477208871847425e-02
    x[3,3]    allocateEach[3]  1
    x[3,3]    findWorstP[1,3]  -2.0091678492307377e-02
    x[3,3]    findWorstP[2,3]  -9.0663711473683059e-02
    x[3,3]    findWorstP[3,1]  3.9640696790400963e-02
    x[3,3]    findWorstP[3,2]  3.9640696790400963e-02
    x[3,4]    allocateEach[4]  1
    x[3,4]    findWorstP[1,3]  -8.5267123357597174e-02
    x[3,4]    findWorstP[2,3]  -6.8027957295998418e-03
    x[3,4]    findWorstP[3,1]  5.5192873434039613e-02
    x[3,4]    findWorstP[3,2]  5.5192873434039613e-02
    x[3,5]    allocateEach[5]  1
    x[3,5]    findWorstP[1,3]  -9.9396637094057230e-02
    x[3,5]    findWorstP[2,3]  -5.5179451167996135e-02
    x[3,5]    findWorstP[3,1]  7.8868211417049569e-02
    x[3,5]    findWorstP[3,2]  7.8868211417049569e-02
    x[3,6]    allocateEach[6]  1
    x[3,6]    findWorstP[1,3]  -8.5889883717368887e-02
    x[3,6]    findWorstP[2,3]  -8.7690231404777316e-02
    x[3,6]    findWorstP[3,1]  2.0022807655439134e-02
    x[3,6]    findWorstP[3,2]  2.0022807655439134e-02
    x[3,7]    allocateEach[7]  1
    x[3,7]    findWorstP[1,3]  -5.4159732927688331e-02
    x[3,7]    findWorstP[2,3]  -2.6004235288954233e-03
    x[3,7]    findWorstP[3,1]  3.6054275609030517e-02
    x[3,7]    findWorstP[3,2]  3.6054275609030517e-02
    x[3,8]    allocateEach[8]  1
    x[3,8]    findWorstP[1,3]  -8.1377423405580337e-02
    x[3,8]    findWorstP[2,3]  -0.000899724596495463
    x[3,8]    findWorstP[3,1]  2.0245926023865404e-02
    x[3,8]    findWorstP[3,2]  2.0245926023865404e-02
    x[3,9]    allocateEach[9]  1
    x[3,9]    findWorstP[1,3]  -4.2980674010474626e-03
    x[3,9]    findWorstP[2,3]  -8.1249519964011016e-02
    x[3,9]    findWorstP[3,1]  7.4645489703500489e-02
    x[3,9]    findWorstP[3,2]  7.4645489703500489e-02
    x[3,10]   allocateEach[10]  1
    x[3,10]   findWorstP[1,3]  -0.0503925432103807
    x[3,10]   findWorstP[2,3]  -1.0931653847419874e-01
    x[3,10]   findWorstP[3,1]  4.7474630615145612e-02
    x[3,10]   findWorstP[3,2]  4.7474630615145612e-02
    x[3,11]   allocateEach[11]  1
    x[3,11]   findWorstP[1,3]  -7.0759869730783770e-02
    x[3,11]   findWorstP[2,3]  -3.4782036230373383e-03
    x[3,11]   findWorstP[3,1]  4.6863121012792129e-02
    x[3,11]   findWorstP[3,2]  4.6863121012792129e-02
    x[3,12]   allocateEach[12]  1
    x[3,12]   findWorstP[1,3]  -3.9887290584067543e-02
    x[3,12]   findWorstP[2,3]  -9.6786227630322907e-02
    x[3,12]   findWorstP[3,1]  1.9469143556010978e-02
    x[3,12]   findWorstP[3,2]  1.9469143556010978e-02
    x[3,13]   allocateEach[13]  1
    x[3,13]   findWorstP[1,3]  -3.9203275106941219e-03
    x[3,13]   findWorstP[2,3]  -7.0167546275469325e-02
    x[3,13]   findWorstP[3,1]  4.6904439229167365e-02
    x[3,13]   findWorstP[3,2]  4.6904439229167365e-02
    x[3,14]   allocateEach[14]  1
    x[3,14]   findWorstP[1,3]  -6.3296954599748848e-04
    x[3,14]   findWorstP[2,3]  -2.8198685524309024e-03
    x[3,14]   findWorstP[3,1]  6.1679833404951583e-02
    x[3,14]   findWorstP[3,2]  6.1679833404951583e-02
    x[3,15]   allocateEach[15]  1
    x[3,15]   findWorstP[1,3]  -9.4843340037365619e-03
    x[3,15]   findWorstP[2,3]  -8.2840496384643234e-02
    x[3,15]   findWorstP[3,1]  7.7405546557366228e-02
    x[3,15]   findWorstP[3,2]  7.7405546557366228e-02
    x[3,16]   allocateEach[16]  1
    x[3,16]   findWorstP[1,3]  -9.6966850772324933e-02
    x[3,16]   findWorstP[2,3]  -5.1920692568494277e-02
    x[3,16]   findWorstP[3,1]  0.0748024989257264
    x[3,16]   findWorstP[3,2]  0.0748024989257264
    x[3,17]   allocateEach[17]  1
    x[3,17]   findWorstP[1,3]  -1.7151432859286789e-02
    x[3,17]   findWorstP[2,3]  -7.2537552529652508e-02
    x[3,17]   findWorstP[3,1]  5.8663603609559391e-02
    x[3,17]   findWorstP[3,2]  5.8663603609559391e-02
    x[3,18]   allocateEach[18]  1
    x[3,18]   findWorstP[1,3]  -7.4026809323028853e-02
    x[3,18]   findWorstP[2,3]  -3.8139545090466208e-02
    x[3,18]   findWorstP[3,1]  3.5203120351700666e-02
    x[3,18]   findWorstP[3,2]  3.5203120351700666e-02
    x[3,19]   allocateEach[19]  1
    x[3,19]   findWorstP[1,3]  -5.1066349501281250e-02
    x[3,19]   findWorstP[2,3]  -1.8554076739924728e-02
    x[3,19]   findWorstP[3,1]  6.1241860311374088e-02
    x[3,19]   findWorstP[3,2]  6.1241860311374088e-02
    x[3,20]   allocateEach[20]  1
    x[3,20]   findWorstP[1,3]  -8.7523353513491428e-02
    x[3,20]   findWorstP[2,3]  -5.3072778942055539e-02
    x[3,20]   findWorstP[3,1]  3.7930122632466208e-02
    x[3,20]   findWorstP[3,2]  3.7930122632466208e-02
    MARKER    'MARKER'                 'INTEND'
RHS
    RHS1      allocateEach[1]  1
    RHS1      allocateEach[2]  1
    RHS1      allocateEach[3]  1
    RHS1      allocateEach[4]  1
    RHS1      allocateEach[5]  1
    RHS1      allocateEach[6]  1
    RHS1      allocateEach[7]  1
    RHS1      allocateEach[8]  1
    RHS1      allocateEach[9]  1
    RHS1      allocateEach[10]  1
    RHS1      allocateEach[11]  1
    RHS1      allocateEach[12]  1
    RHS1      allocateEach[13]  1
    RHS1      allocateEach[14]  1
    RHS1      allocateEach[15]  1
    RHS1      allocateEach[16]  1
    RHS1      allocateEach[17]  1
    RHS1      allocateEach[18]  1
    RHS1      allocateEach[19]  1
    RHS1      allocateEach[20]  1
    RHS1      allocateAllCash  1
BOUNDS
 UP BND1      z         1
 MI BND1      cashProportion[1]
 UP BND1      cashProportion[1]  1
 MI BND1      cashProportion[2]
 UP BND1      cashProportion[2]  1
 MI BND1      cashProportion[3]
 UP BND1      cashProportion[3]  1
 BV BND1      x[1,1]  
 BV BND1      x[1,2]  
 BV BND1      x[1,3]  
 BV BND1      x[1,4]  
 BV BND1      x[1,5]  
 BV BND1      x[1,6]  
 BV BND1      x[1,7]  
 BV BND1      x[1,8]  
 BV BND1      x[1,9]  
 BV BND1      x[1,10] 
 BV BND1      x[1,11] 
 BV BND1      x[1,12] 
 BV BND1      x[1,13] 
 BV BND1      x[1,14] 
 BV BND1      x[1,15] 
 BV BND1      x[1,16] 
 BV BND1      x[1,17] 
 BV BND1      x[1,18] 
 BV BND1      x[1,19] 
 BV BND1      x[1,20] 
 BV BND1      x[2,1]  
 BV BND1      x[2,2]  
 BV BND1      x[2,3]  
 BV BND1      x[2,4]  
 BV BND1      x[2,5]  
 BV BND1      x[2,6]  
 BV BND1      x[2,7]  
 BV BND1      x[2,8]  
 BV BND1      x[2,9]  
 BV BND1      x[2,10] 
 BV BND1      x[2,11] 
 BV BND1      x[2,12] 
 BV BND1      x[2,13] 
 BV BND1      x[2,14] 
 BV BND1      x[2,15] 
 BV BND1      x[2,16] 
 BV BND1      x[2,17] 
 BV BND1      x[2,18] 
 BV BND1      x[2,19] 
 BV BND1      x[2,20] 
 BV BND1      x[3,1]  
 BV BND1      x[3,2]  
 BV BND1      x[3,3]  
 BV BND1      x[3,4]  
 BV BND1      x[3,5]  
 BV BND1      x[3,6]  
 BV BND1      x[3,7]  
 BV BND1      x[3,8]  
 BV BND1      x[3,9]  
 BV BND1      x[3,10] 
 BV BND1      x[3,11] 
 BV BND1      x[3,12] 
 BV BND1      x[3,13] 
 BV BND1      x[3,14] 
 BV BND1      x[3,15] 
 BV BND1      x[3,16] 
 BV BND1      x[3,17] 
 BV BND1      x[3,18] 
 BV BND1      x[3,19] 
 BV BND1      x[3,20] 
ENDATA
